instances/knapsack/discrete/knapsack_110_19.lp
\ Model knapsack_110_19
\ LP format - for model browsing. Use MPS format to capture full model detail.
\ Signature: 0x1c7a262dccd0e095
Minimize
  - 92 x[0] - 84 x[1] - 82 x[2] - 42 x[3] - 27 x[4] - 83 x[5] - 95 x[6]
   - 9 x[7] - 16 x[8] - 52 x[9] - 81 x[10] - 9 x[11] - 45 x[12] - 60 x[13]
   - x[14] - 50 x[15] - 36 x[16] - 40 x[17] - 84 x[18] - 23 x[19]
   - 23 x[20] - 81 x[21] - 6 x[22] - 66 x[23] - 75 x[24] - 36 x[25]
   - 74 x[26] - 37 x[27] - 96 x[28] - 30 x[29] - 35 x[30] - 14 x[31]
   - 2 x[32] - 13 x[33] - 73 x[34] - 15 x[35] - 71 x[36] - 41 x[37]
   - 60 x[38] - 69 x[39] - 74 x[40] - 55 x[41] - 95 x[42] - 97 x[43]
   - 12 x[44] - 13 x[45] - 58 x[46] - 94 x[47] - 66 x[48] - 47 x[49]
   - 65 x[50] - 88 x[51] - 61 x[52] - 31 x[53] - 66 x[54] - 12 x[55]
   - 12 x[56] - 42 x[57] - 22 x[58] - 41 x[59] - 94 x[60] - 96 x[61]
   - 91 x[62] - 15 x[63] - 84 x[64] - 15 x[65] - 55 x[66] - 51 x[67]
   - 14 x[68] - 11 x[69] - 23 x[70] - 61 x[71] - 43 x[72] - 19 x[73]
   - 96 x[74] - 68 x[75] - 64 x[76] - 11 x[77] - 58 x[78] - 13 x[79]
   - 89 x[80] - 60 x[81] - 51 x[82] - 68 x[83] - 27 x[84] - 78 x[85]
   - 64 x[86] - 65 x[87] - 30 x[88] - 44 x[89] - 24 x[90] - 87 x[91]
   - 67 x[92] - 66 x[93] - 62 x[94] - 32 x[95] - 91 x[96] - 74 x[97]
   - 2 x[98] - 78 x[99] - 18 x[100] - 43 x[101] - 64 x[102] - 11 x[103]
   - 9 x[104] - 53 x[105] - 60 x[106] - 2 x[107] - 16 x[108] - 30 x[109]
Subject To
 primal_upper: 35 x[0] + 80 x[1] + 34 x[2] + 23 x[3] + 72 x[4] + 13 x[5]
   + 21 x[6] + 75 x[7] + 89 x[8] + 66 x[9] + 83 x[10] + 99 x[11] + 44 x[12]
   + 36 x[13] + 64 x[14] + 76 x[15] + 61 x[16] + 64 x[17] + 69 x[18]
   + 38 x[19] + 77 x[20] + 35 x[21] + 92 x[22] + 18 x[23] + 16 x[24]
   + 76 x[25] + 50 x[26] + 63 x[27] + 45 x[28] + 27 x[29] + 77 x[30]
   + 3 x[31] + 7 x[32] + x[33] + 64 x[34] + x[35] + 44 x[36] + 16 x[37]
   + 96 x[38] + 46 x[39] + 71 x[40] + 17 x[41] + 18 x[42] + 89 x[43]
   + 79 x[44] + 94 x[45] + 73 x[46] + 85 x[47] + 15 x[48] + 88 x[49]
   + 38 x[50] + 16 x[51] + 33 x[52] + 32 x[53] + 80 x[54] + 79 x[55]
   + 5 x[56] + 14 x[57] + 68 x[58] + 70 x[59] + 20 x[60] + 54 x[61]
   + 59 x[62] + 74 x[63] + 59 x[64] + 8 x[65] + 16 x[66] + 22 x[67]
   + 56 x[68] + 33 x[69] + 13 x[70] + 89 x[71] + 78 x[72] + 47 x[73]
   + 7 x[74] + 96 x[75] + 46 x[76] + 51 x[77] + 84 x[78] + 58 x[79]
   + 81 x[80] + 85 x[81] + 2 x[82] + 93 x[83] + 37 x[84] + 17 x[85]
   + 55 x[86] + 36 x[87] + 46 x[88] + 99 x[89] + 8 x[90] + 68 x[91]
   + 48 x[92] + 55 x[93] + 80 x[94] + 17 x[95] + 5 x[96] + 88 x[97]
   + 80 x[98] + 68 x[99] + 5 x[100] + 40 x[101] + 70 x[102] + 8 x[103]
   + 5 x[104] + 90 x[105] + 75 x[106] + 78 x[107] + 22 x[108] + 25 x[109]
   + 3.5 r[0] + 8 r[1] + 3.4 r[2] + 2.3 r[3] + 7.2 r[4] + 1.3 r[5]
   + 2.1 r[6] + 7.5 r[7] + 8.9 r[8] + 6.6 r[9] + 8.3 r[10] + 9.9 r[11]
   + 4.4 r[12] + 3.6 r[13] + 6.4 r[14] + 7.6 r[15] + 6.1 r[16] + 6.4 r[17]
   + 6.9 r[18] + 3.8 r[19] + 7.7 r[20] + 3.5 r[21] + 9.2 r[22] + 1.8 r[23]
   + 1.6 r[24] + 7.6 r[25] + 5 r[26] + 6.3 r[27] + 4.5 r[28] + 2.7 r[29]
   + 7.7 r[30] + 0.3 r[31] + 0.7 r[32] + 0.1 r[33] + 6.4 r[34] + 0.1 r[35]
   + 4.4 r[36] + 1.6 r[37] + 9.6 r[38] + 4.6 r[39] + 7.1 r[40] + 1.7 r[41]
   + 1.8 r[42] + 8.9 r[43] + 7.9 r[44] + 9.4 r[45] + 7.3 r[46] + 8.5 r[47]
   + 1.5 r[48] + 8.8 r[49] + 3.8 r[50] + 1.6 r[51] + 3.3 r[52] + 3.2 r[53]
   + 8 r[54] + 7.9 r[55] + 0.5 r[56] + 1.4 r[57] + 6.8 r[58] + 7 r[59]
   + 2 r[60] + 5.4 r[61] + 5.9 r[62] + 7.4 r[63] + 5.9 r[64] + 0.8 r[65]
   + 1.6 r[66] + 2.2 r[67] + 5.6 r[68] + 3.3 r[69] + 1.3 r[70] + 8.9 r[71]
   + 7.8 r[72] + 4.7 r[73] + 0.7 r[74] + 9.6 r[75] + 4.6 r[76] + 5.1 r[77]
   + 8.4 r[78] + 5.8 r[79] + 8.1 r[80] + 8.5 r[81] + 0.2 r[82] + 9.3 r[83]
   + 3.7 r[84] + 1.7 r[85] + 5.5 r[86] + 3.6 r[87] + 4.6 r[88] + 9.9 r[89]
   + 0.8 r[90] + 6.8 r[91] + 4.8 r[92] + 5.5 r[93] + 8 r[94] + 1.7 r[95]
   + 0.5 r[96] + 8.8 r[97] + 8 r[98] + 6.8 r[99] + 0.5 r[100] + 4 r[101]
   + 7 r[102] + 0.8 r[103] + 0.5 r[104] + 9 r[105] + 7.5 r[106]
   + 7.8 r[107] + 2.2 r[108] + 2.5 r[109] <= 525
 primal_lower: 0.1452701221333536 x[0] + 2.303432603185859 x[1]
   + 0.4609449664719001 x[2] + 2.526511951882772 x[3]
   + 0.991282997772068 x[4] + 0.8027653299029479 x[5]
   + 4.013758302331001 x[6] + 1.708118488181563 x[7]
   + 2.918136200860629 x[8] + 2.327617260657568 x[9]
   + 4.655275310843366 x[10] + 1.053950973632982 x[11]
   + 2.53546711810966 x[12] + 1.196088172583764 x[13]
   + 0.5422234175383326 x[14] + 1.431890268205478 x[15]
   + 1.27952526729398 x[16] + 1.161139274626546 x[17]
   + 0.4388876985547436 x[18] + 0.9075619358877219 x[19]
   + 0.2870703657579235 x[20] + 2.297781575585122 x[21]
   + 0.8251196902408104 x[22] + 0.1482540885002187 x[23]
   + 2.532393698940047 x[24] + 0.3101716662397662 x[25]
   + 3.691818553908269 x[26] + 2.906095744363285 x[27]
   + 4.047282069867203 x[28] + 2.322188603993176 x[29]
   + 3.878320884482768 x[30] + 3.842064630528197 x[31]
   + 3.575279896848097 x[32] + 2.243215335424 x[33]
   + 1.958432354826887 x[34] + 2.222211803800068 x[35]
   + 0.1661303731379536 x[36] + 2.415712459314014 x[37]
   + 2.032120406724943 x[38] + 0.0122971341933329 x[39]
   + 2.306856960788597 x[40] + 0.9812854019463217 x[41]
   + 2.430057817788419 x[42] + 1.241910347957168 x[43]
   + 4.727843343464172 x[44] + 1.651621136885158 x[45]
   + 2.048679256362603 x[46] + 4.498498541288956 x[47]
   + 0.1468081099368267 x[48] + 3.901191970355721 x[49]
   + 4.434108514205572 x[50] + 3.107877943748278 x[51]
   + 1.278167115517349 x[52] + 0.7333745424489496 x[53]
   + 1.139048994368441 x[54] + 3.793656080381252 x[55]
   + 0.6145519599066581 x[56] + 1.14516322850301 x[57]
   + 4.15898917456107 x[58] + 1.396652866679222 x[59]
   + 1.183350484341113 x[60] + 0.037095276945744 x[61]
   + 1.132641550633709 x[62] + 4.265113897543038 x[63]
   + 4.201235412149005 x[64] + 4.030397611156178 x[65]
   + 1.379311260026248 x[66] + 0.1984683783335991 x[67]
   + 2.032222711700405 x[68] + 2.177511662805874 x[69]
   + 2.382925658484963 x[70] + 1.420131630551762 x[71]
   + 3.349065808658412 x[72] + 2.069106470693634 x[73]
   + 3.607070390306333 x[74] + 2.097501819610511 x[75]
   + 1.426044643116138 x[76] + 2.297369810406861 x[77]
   + 2.530366507331693 x[78] + 1.918139295193973 x[79]
   + 4.690812508048409 x[80] + 2.127273757422274 x[81]
   + 1.178990221415684 x[82] + 0.7371427632728955 x[83]
   + 4.260140533433252 x[84] + 0.4621574195889026 x[85]
   + 0.3873078273641246 x[86] + 0.2033598285132585 x[87]
   + 2.613633715398091 x[88] + 0.7374687826653941 x[89]
   + 1.02429825806767 x[90] + 1.905529166555621 x[91]
   + 3.876166587875903 x[92] + 1.880788062336237 x[93]
   + 0.6420276847320578 x[94] + 0.5987620784568068 x[95]
   + 4.199066186128137 x[96] + 3.716798848658073 x[97]
   + 3.773065388623 x[98] + 3.37453963222214 x[99]
   + 0.0553318613490977 x[100] + 4.220113514048729 x[101]
   + 3.688649754629894 x[102] + 4.29358204150129 x[103]
   + 0.9789175703110292 x[104] + 3.170455652966994 x[105]
   + 4.233873957440635 x[106] + 3.178232753717774 x[107]
   + 1.47738898199045 x[108] + 3.788118819662023 x[109] + 23 u[0] + 3 u[1]
   + 97 u[2] + 6 u[3] + 35 u[4] + 37 u[5] + 28 u[6] + 15 u[7] + 36 u[8]
   + 17 u[9] + 43 u[10] + 98 u[11] + 31 u[12] + 87 u[13] + 44 u[14]
   + 100 u[15] + 76 u[16] + 3 u[17] + 36 u[18] + 57 u[19] + 40 u[20]
   + 83 u[21] + 7 u[22] + 34 u[23] + 64 u[24] + 83 u[25] + 37 u[26]
   + 71 u[27] + 73 u[28] + 90 u[29] + 81 u[30] + 99 u[31] + 67 u[32]
   + 60 u[33] + 67 u[34] + 12 u[35] + 51 u[36] + 96 u[37] + 27 u[38]
   + 98 u[39] + 90 u[40] + 5 u[41] + 89 u[42] + 41 u[43] + 54 u[44]
   + 74 u[45] + 89 u[46] + 33 u[47] + 2 u[48] + 3 u[49] + 54 u[50]
   + 51 u[51] + 16 u[52] + 47 u[53] + 36 u[54] + 75 u[55] + 36 u[56]
   + 70 u[57] + 7 u[58] + 5 u[59] + 36 u[60] + 2 u[61] + 87 u[62]
   + 62 u[63] + 51 u[64] + 63 u[65] + 100 u[66] + 70 u[67] + 35 u[68]
   + 17 u[69] + 53 u[70] + 37 u[71] + 65 u[72] + 90 u[73] + 11 u[74]
   + 76 u[75] + 30 u[76] + 46 u[77] + 60 u[78] + 46 u[79] + 65 u[80]
   + 41 u[81] + 54 u[82] + 81 u[83] + 37 u[84] + 77 u[85] + 11 u[86]
   + 63 u[87] + 97 u[88] + 70 u[89] + 100 u[90] + 4 u[91] + 20 u[92]
   + 67 u[93] + 59 u[94] + 92 u[95] + 24 u[96] + 32 u[97] + 23 u[98]
   + 35 u[99] + 4 u[100] + 19 u[101] + 17 u[102] + 79 u[103] + 44 u[104]
   + 69 u[105] + 66 u[106] + 66 u[107] + 30 u[108] + 16 u[109] <= 88560
 mccormick1[0]: - u[0] + r[0] <= 0
 mccormick1[1]: - u[1] + r[1] <= 0
 mccormick1[2]: - u[2] + r[2] <= 0
 mccormick1[3]: - u[3] + r[3] <= 0
 mccormick1[4]: - u[4] + r[4] <= 0
 mccormick1[5]: - u[5] + r[5] <= 0
 mccormick1[6]: - u[6] + r[6] <= 0
 mccormick1[7]: - u[7] + r[7] <= 0
 mccormick1[8]: - u[8] + r[8] <= 0
 mccormick1[9]: - u[9] + r[9] <= 0
 mccormick1[10]: - u[10] + r[10] <= 0
 mccormick1[11]: - u[11] + r[11] <= 0
 mccormick1[12]: - u[12] + r[12] <= 0
 mccormick1[13]: - u[13] + r[13] <= 0
 mccormick1[14]: - u[14] + r[14] <= 0
 mccormick1[15]: - u[15] + r[15] <= 0
 mccormick1[16]: - u[16] + r[16] <= 0
 mccormick1[17]: - u[17] + r[17] <= 0
 mccormick1[18]: - u[18] + r[18] <= 0
 mccormick1[19]: - u[19] + r[19] <= 0
 mccormick1[20]: - u[20] + r[20] <= 0
 mccormick1[21]: - u[21] + r[21] <= 0
 mccormick1[22]: - u[22] + r[22] <= 0
 mccormick1[23]: - u[23] + r[23] <= 0
 mccormick1[24]: - u[24] + r[24] <= 0
 mccormick1[25]: - u[25] + r[25] <= 0
 mccormick1[26]: - u[26] + r[26] <= 0
 mccormick1[27]: - u[27] + r[27] <= 0
 mccormick1[28]: - u[28] + r[28] <= 0
 mccormick1[29]: - u[29] + r[29] <= 0
 mccormick1[30]: - u[30] + r[30] <= 0
 mccormick1[31]: - u[31] + r[31] <= 0
 mccormick1[32]: - u[32] + r[32] <= 0
 mccormick1[33]: - u[33] + r[33] <= 0
 mccormick1[34]: - u[34] + r[34] <= 0
 mccormick1[35]: - u[35] + r[35] <= 0
 mccormick1[36]: - u[36] + r[36] <= 0
 mccormick1[37]: - u[37] + r[37] <= 0
 mccormick1[38]: - u[38] + r[38] <= 0
 mccormick1[39]: - u[39] + r[39] <= 0
 mccormick1[40]: - u[40] + r[40] <= 0
 mccormick1[41]: - u[41] + r[41] <= 0
 mccormick1[42]: - u[42] + r[42] <= 0
 mccormick1[43]: - u[43] + r[43] <= 0
 mccormick1[44]: - u[44] + r[44] <= 0
 mccormick1[45]: - u[45] + r[45] <= 0
 mccormick1[46]: - u[46] + r[46] <= 0
 mccormick1[47]: - u[47] + r[47] <= 0
 mccormick1[48]: - u[48] + r[48] <= 0
 mccormick1[49]: - u[49] + r[49] <= 0
 mccormick1[50]: - u[50] + r[50] <= 0
 mccormick1[51]: - u[51] + r[51] <= 0
 mccormick1[52]: - u[52] + r[52] <= 0
 mccormick1[53]: - u[53] + r[53] <= 0
 mccormick1[54]: - u[54] + r[54] <= 0
 mccormick1[55]: - u[55] + r[55] <= 0
 mccormick1[56]: - u[56] + r[56] <= 0
 mccormick1[57]: - u[57] + r[57] <= 0
 mccormick1[58]: - u[58] + r[58] <= 0
 mccormick1[59]: - u[59] + r[59] <= 0
 mccormick1[60]: - u[60] + r[60] <= 0
 mccormick1[61]: - u[61] + r[61] <= 0
 mccormick1[62]: - u[62] + r[62] <= 0
 mccormick1[63]: - u[63] + r[63] <= 0
 mccormick1[64]: - u[64] + r[64] <= 0
 mccormick1[65]: - u[65] + r[65] <= 0
 mccormick1[66]: - u[66] + r[66] <= 0
 mccormick1[67]: - u[67] + r[67] <= 0
 mccormick1[68]: - u[68] + r[68] <= 0
 mccormick1[69]: - u[69] + r[69] <= 0
 mccormick1[70]: - u[70] + r[70] <= 0
 mccormick1[71]: - u[71] + r[71] <= 0
 mccormick1[72]: - u[72] + r[72] <= 0
 mccormick1[73]: - u[73] + r[73] <= 0
 mccormick1[74]: - u[74] + r[74] <= 0
 mccormick1[75]: - u[75] + r[75] <= 0
 mccormick1[76]: - u[76] + r[76] <= 0
 mccormick1[77]: - u[77] + r[77] <= 0
 mccormick1[78]: - u[78] + r[78] <= 0
 mccormick1[79]: - u[79] + r[79] <= 0
 mccormick1[80]: - u[80] + r[80] <= 0
 mccormick1[81]: - u[81] + r[81] <= 0
 mccormick1[82]: - u[82] + r[82] <= 0
 mccormick1[83]: - u[83] + r[83] <= 0
 mccormick1[84]: - u[84] + r[84] <= 0
 mccormick1[85]: - u[85] + r[85] <= 0
 mccormick1[86]: - u[86] + r[86] <= 0
 mccormick1[87]: - u[87] + r[87] <= 0
 mccormick1[88]: - u[88] + r[88] <= 0
 mccormick1[89]: - u[89] + r[89] <= 0
 mccormick1[90]: - u[90] + r[90] <= 0
 mccormick1[91]: - u[91] + r[91] <= 0
 mccormick1[92]: - u[92] + r[92] <= 0
 mccormick1[93]: - u[93] + r[93] <= 0
 mccormick1[94]: - u[94] + r[94] <= 0
 mccormick1[95]: - u[95] + r[95] <= 0
 mccormick1[96]: - u[96] + r[96] <= 0
 mccormick1[97]: - u[97] + r[97] <= 0
 mccormick1[98]: - u[98] + r[98] <= 0
 mccormick1[99]: - u[99] + r[99] <= 0
 mccormick1[100]: - u[100] + r[100] <= 0
 mccormick1[101]: - u[101] + r[101] <= 0
 mccormick1[102]: - u[102] + r[102] <= 0
 mccormick1[103]: - u[103] + r[103] <= 0
 mccormick1[104]: - u[104] + r[104] <= 0
 mccormick1[105]: - u[105] + r[105] <= 0
 mccormick1[106]: - u[106] + r[106] <= 0
 mccormick1[107]: - u[107] + r[107] <= 0
 mccormick1[108]: - u[108] + r[108] <= 0
 mccormick1[109]: - u[109] + r[109] <= 0
 mccormick2[0]: - x[0] + r[0] <= 0
 mccormick2[1]: - x[1] + r[1] <= 0
 mccormick2[2]: - x[2] + r[2] <= 0
 mccormick2[3]: - x[3] + r[3] <= 0
 mccormick2[4]: - x[4] + r[4] <= 0
 mccormick2[5]: - x[5] + r[5] <= 0
 mccormick2[6]: - x[6] + r[6] <= 0
 mccormick2[7]: - x[7] + r[7] <= 0
 mccormick2[8]: - x[8] + r[8] <= 0
 mccormick2[9]: - x[9] + r[9] <= 0
 mccormick2[10]: - x[10] + r[10] <= 0
 mccormick2[11]: - x[11] + r[11] <= 0
 mccormick2[12]: - x[12] + r[12] <= 0
 mccormick2[13]: - x[13] + r[13] <= 0
 mccormick2[14]: - x[14] + r[14] <= 0
 mccormick2[15]: - x[15] + r[15] <= 0
 mccormick2[16]: - x[16] + r[16] <= 0
 mccormick2[17]: - x[17] + r[17] <= 0
 mccormick2[18]: - x[18] + r[18] <= 0
 mccormick2[19]: - x[19] + r[19] <= 0
 mccormick2[20]: - x[20] + r[20] <= 0
 mccormick2[21]: - x[21] + r[21] <= 0
 mccormick2[22]: - x[22] + r[22] <= 0
 mccormick2[23]: - x[23] + r[23] <= 0
 mccormick2[24]: - x[24] + r[24] <= 0
 mccormick2[25]: - x[25] + r[25] <= 0
 mccormick2[26]: - x[26] + r[26] <= 0
 mccormick2[27]: - x[27] + r[27] <= 0
 mccormick2[28]: - x[28] + r[28] <= 0
 mccormick2[29]: - x[29] + r[29] <= 0
 mccormick2[30]: - x[30] + r[30] <= 0
 mccormick2[31]: - x[31] + r[31] <= 0
 mccormick2[32]: - x[32] + r[32] <= 0
 mccormick2[33]: - x[33] + r[33] <= 0
 mccormick2[34]: - x[34] + r[34] <= 0
 mccormick2[35]: - x[35] + r[35] <= 0
 mccormick2[36]: - x[36] + r[36] <= 0
 mccormick2[37]: - x[37] + r[37] <= 0
 mccormick2[38]: - x[38] + r[38] <= 0
 mccormick2[39]: - x[39] + r[39] <= 0
 mccormick2[40]: - x[40] + r[40] <= 0
 mccormick2[41]: - x[41] + r[41] <= 0
 mccormick2[42]: - x[42] + r[42] <= 0
 mccormick2[43]: - x[43] + r[43] <= 0
 mccormick2[44]: - x[44] + r[44] <= 0
 mccormick2[45]: - x[45] + r[45] <= 0
 mccormick2[46]: - x[46] + r[46] <= 0
 mccormick2[47]: - x[47] + r[47] <= 0
 mccormick2[48]: - x[48] + r[48] <= 0
 mccormick2[49]: - x[49] + r[49] <= 0
 mccormick2[50]: - x[50] + r[50] <= 0
 mccormick2[51]: - x[51] + r[51] <= 0
 mccormick2[52]: - x[52] + r[52] <= 0
 mccormick2[53]: - x[53] + r[53] <= 0
 mccormick2[54]: - x[54] + r[54] <= 0
 mccormick2[55]: - x[55] + r[55] <= 0
 mccormick2[56]: - x[56] + r[56] <= 0
 mccormick2[57]: - x[57] + r[57] <= 0
 mccormick2[58]: - x[58] + r[58] <= 0
 mccormick2[59]: - x[59] + r[59] <= 0
 mccormick2[60]: - x[60] + r[60] <= 0
 mccormick2[61]: - x[61] + r[61] <= 0
 mccormick2[62]: - x[62] + r[62] <= 0
 mccormick2[63]: - x[63] + r[63] <= 0
 mccormick2[64]: - x[64] + r[64] <= 0
 mccormick2[65]: - x[65] + r[65] <= 0
 mccormick2[66]: - x[66] + r[66] <= 0
 mccormick2[67]: - x[67] + r[67] <= 0
 mccormick2[68]: - x[68] + r[68] <= 0
 mccormick2[69]: - x[69] + r[69] <= 0
 mccormick2[70]: - x[70] + r[70] <= 0
 mccormick2[71]: - x[71] + r[71] <= 0
 mccormick2[72]: - x[72] + r[72] <= 0
 mccormick2[73]: - x[73] + r[73] <= 0
 mccormick2[74]: - x[74] + r[74] <= 0
 mccormick2[75]: - x[75] + r[75] <= 0
 mccormick2[76]: - x[76] + r[76] <= 0
 mccormick2[77]: - x[77] + r[77] <= 0
 mccormick2[78]: - x[78] + r[78] <= 0
 mccormick2[79]: - x[79] + r[79] <= 0
 mccormick2[80]: - x[80] + r[80] <= 0
 mccormick2[81]: - x[81] + r[81] <= 0
 mccormick2[82]: - x[82] + r[82] <= 0
 mccormick2[83]: - x[83] + r[83] <= 0
 mccormick2[84]: - x[84] + r[84] <= 0
 mccormick2[85]: - x[85] + r[85] <= 0
 mccormick2[86]: - x[86] + r[86] <= 0
 mccormick2[87]: - x[87] + r[87] <= 0
 mccormick2[88]: - x[88] + r[88] <= 0
 mccormick2[89]: - x[89] + r[89] <= 0
 mccormick2[90]: - x[90] + r[90] <= 0
 mccormick2[91]: - x[91] + r[91] <= 0
 mccormick2[92]: - x[92] + r[92] <= 0
 mccormick2[93]: - x[93] + r[93] <= 0
 mccormick2[94]: - x[94] + r[94] <= 0
 mccormick2[95]: - x[95] + r[95] <= 0
 mccormick2[96]: - x[96] + r[96] <= 0
 mccormick2[97]: - x[97] + r[97] <= 0
 mccormick2[98]: - x[98] + r[98] <= 0
 mccormick2[99]: - x[99] + r[99] <= 0
 mccormick2[100]: - x[100] + r[100] <= 0
 mccormick2[101]: - x[101] + r[101] <= 0
 mccormick2[102]: - x[102] + r[102] <= 0
 mccormick2[103]: - x[103] + r[103] <= 0
 mccormick2[104]: - x[104] + r[104] <= 0
 mccormick2[105]: - x[105] + r[105] <= 0
 mccormick2[106]: - x[106] + r[106] <= 0
 mccormick2[107]: - x[107] + r[107] <= 0
 mccormick2[108]: - x[108] + r[108] <= 0
 mccormick2[109]: - x[109] + r[109] <= 0
 mccormick3[0]: x[0] + u[0] - r[0] <= 1
 mccormick3[1]: x[1] + u[1] - r[1] <= 1
 mccormick3[2]: x[2] + u[2] - r[2] <= 1
 mccormick3[3]: x[3] + u[3] - r[3] <= 1
 mccormick3[4]: x[4] + u[4] - r[4] <= 1
 mccormick3[5]: x[5] + u[5] - r[5] <= 1
 mccormick3[6]: x[6] + u[6] - r[6] <= 1
 mccormick3[7]: x[7] + u[7] - r[7] <= 1
 mccormick3[8]: x[8] + u[8] - r[8] <= 1
 mccormick3[9]: x[9] + u[9] - r[9] <= 1
 mccormick3[10]: x[10] + u[10] - r[10] <= 1
 mccormick3[11]: x[11] + u[11] - r[11] <= 1
 mccormick3[12]: x[12] + u[12] - r[12] <= 1
 mccormick3[13]: x[13] + u[13] - r[13] <= 1
 mccormick3[14]: x[14] + u[14] - r[14] <= 1
 mccormick3[15]: x[15] + u[15] - r[15] <= 1
 mccormick3[16]: x[16] + u[16] - r[16] <= 1
 mccormick3[17]: x[17] + u[17] - r[17] <= 1
 mccormick3[18]: x[18] + u[18] - r[18] <= 1
 mccormick3[19]: x[19] + u[19] - r[19] <= 1
 mccormick3[20]: x[20] + u[20] - r[20] <= 1
 mccormick3[21]: x[21] + u[21] - r[21] <= 1
 mccormick3[22]: x[22] + u[22] - r[22] <= 1
 mccormick3[23]: x[23] + u[23] - r[23] <= 1
 mccormick3[24]: x[24] + u[24] - r[24] <= 1
 mccormick3[25]: x[25] + u[25] - r[25] <= 1
 mccormick3[26]: x[26] + u[26] - r[26] <= 1
 mccormick3[27]: x[27] + u[27] - r[27] <= 1
 mccormick3[28]: x[28] + u[28] - r[28] <= 1
 mccormick3[29]: x[29] + u[29] - r[29] <= 1
 mccormick3[30]: x[30] + u[30] - r[30] <= 1
 mccormick3[31]: x[31] + u[31] - r[31] <= 1
 mccormick3[32]: x[32] + u[32] - r[32] <= 1
 mccormick3[33]: x[33] + u[33] - r[33] <= 1
 mccormick3[34]: x[34] + u[34] - r[34] <= 1
 mccormick3[35]: x[35] + u[35] - r[35] <= 1
 mccormick3[36]: x[36] + u[36] - r[36] <= 1
 mccormick3[37]: x[37] + u[37] - r[37] <= 1
 mccormick3[38]: x[38] + u[38] - r[38] <= 1
 mccormick3[39]: x[39] + u[39] - r[39] <= 1
 mccormick3[40]: x[40] + u[40] - r[40] <= 1
 mccormick3[41]: x[41] + u[41] - r[41] <= 1
 mccormick3[42]: x[42] + u[42] - r[42] <= 1
 mccormick3[43]: x[43] + u[43] - r[43] <= 1
 mccormick3[44]: x[44] + u[44] - r[44] <= 1
 mccormick3[45]: x[45] + u[45] - r[45] <= 1
 mccormick3[46]: x[46] + u[46] - r[46] <= 1
 mccormick3[47]: x[47] + u[47] - r[47] <= 1
 mccormick3[48]: x[48] + u[48] - r[48] <= 1
 mccormick3[49]: x[49] + u[49] - r[49] <= 1
 mccormick3[50]: x[50] + u[50] - r[50] <= 1
 mccormick3[51]: x[51] + u[51] - r[51] <= 1
 mccormick3[52]: x[52] + u[52] - r[52] <= 1
 mccormick3[53]: x[53] + u[53] - r[53] <= 1
 mccormick3[54]: x[54] + u[54] - r[54] <= 1
 mccormick3[55]: x[55] + u[55] - r[55] <= 1
 mccormick3[56]: x[56] + u[56] - r[56] <= 1
 mccormick3[57]: x[57] + u[57] - r[57] <= 1
 mccormick3[58]: x[58] + u[58] - r[58] <= 1
 mccormick3[59]: x[59] + u[59] - r[59] <= 1
 mccormick3[60]: x[60] + u[60] - r[60] <= 1
 mccormick3[61]: x[61] + u[61] - r[61] <= 1
 mccormick3[62]: x[62] + u[62] - r[62] <= 1
 mccormick3[63]: x[63] + u[63] - r[63] <= 1
 mccormick3[64]: x[64] + u[64] - r[64] <= 1
 mccormick3[65]: x[65] + u[65] - r[65] <= 1
 mccormick3[66]: x[66] + u[66] - r[66] <= 1
 mccormick3[67]: x[67] + u[67] - r[67] <= 1
 mccormick3[68]: x[68] + u[68] - r[68] <= 1
 mccormick3[69]: x[69] + u[69] - r[69] <= 1
 mccormick3[70]: x[70] + u[70] - r[70] <= 1
 mccormick3[71]: x[71] + u[71] - r[71] <= 1
 mccormick3[72]: x[72] + u[72] - r[72] <= 1
 mccormick3[73]: x[73] + u[73] - r[73] <= 1
 mccormick3[74]: x[74] + u[74] - r[74] <= 1
 mccormick3[75]: x[75] + u[75] - r[75] <= 1
 mccormick3[76]: x[76] + u[76] - r[76] <= 1
 mccormick3[77]: x[77] + u[77] - r[77] <= 1
 mccormick3[78]: x[78] + u[78] - r[78] <= 1
 mccormick3[79]: x[79] + u[79] - r[79] <= 1
 mccormick3[80]: x[80] + u[80] - r[80] <= 1
 mccormick3[81]: x[81] + u[81] - r[81] <= 1
 mccormick3[82]: x[82] + u[82] - r[82] <= 1
 mccormick3[83]: x[83] + u[83] - r[83] <= 1
 mccormick3[84]: x[84] + u[84] - r[84] <= 1
 mccormick3[85]: x[85] + u[85] - r[85] <= 1
 mccormick3[86]: x[86] + u[86] - r[86] <= 1
 mccormick3[87]: x[87] + u[87] - r[87] <= 1
 mccormick3[88]: x[88] + u[88] - r[88] <= 1
 mccormick3[89]: x[89] + u[89] - r[89] <= 1
 mccormick3[90]: x[90] + u[90] - r[90] <= 1
 mccormick3[91]: x[91] + u[91] - r[91] <= 1
 mccormick3[92]: x[92] + u[92] - r[92] <= 1
 mccormick3[93]: x[93] + u[93] - r[93] <= 1
 mccormick3[94]: x[94] + u[94] - r[94] <= 1
 mccormick3[95]: x[95] + u[95] - r[95] <= 1
 mccormick3[96]: x[96] + u[96] - r[96] <= 1
 mccormick3[97]: x[97] + u[97] - r[97] <= 1
 mccormick3[98]: x[98] + u[98] - r[98] <= 1
 mccormick3[99]: x[99] + u[99] - r[99] <= 1
 mccormick3[100]: x[100] + u[100] - r[100] <= 1
 mccormick3[101]: x[101] + u[101] - r[101] <= 1
 mccormick3[102]: x[102] + u[102] - r[102] <= 1
 mccormick3[103]: x[103] + u[103] - r[103] <= 1
 mccormick3[104]: x[104] + u[104] - r[104] <= 1
 mccormick3[105]: x[105] + u[105] - r[105] <= 1
 mccormick3[106]: x[106] + u[106] - r[106] <= 1
 mccormick3[107]: x[107] + u[107] - r[107] <= 1
 mccormick3[108]: x[108] + u[108] - r[108] <= 1
 mccormick3[109]: x[109] + u[109] - r[109] <= 1
Bounds
Binaries
 x[0] x[1] x[2] x[3] x[4] x[5] x[6] x[7] x[8] x[9] x[10] x[11] x[12] x[13]
 x[14] x[15] x[16] x[17] x[18] x[19] x[20] x[21] x[22] x[23] x[24] x[25]
 x[26] x[27] x[28] x[29] x[30] x[31] x[32] x[33] x[34] x[35] x[36] x[37]
 x[38] x[39] x[40] x[41] x[42] x[43] x[44] x[45] x[46] x[47] x[48] x[49]
 x[50] x[51] x[52] x[53] x[54] x[55] x[56] x[57] x[58] x[59] x[60] x[61]
 x[62] x[63] x[64] x[65] x[66] x[67] x[68] x[69] x[70] x[71] x[72] x[73]
 x[74] x[75] x[76] x[77] x[78] x[79] x[80] x[81] x[82] x[83] x[84] x[85]
 x[86] x[87] x[88] x[89] x[90] x[91] x[92] x[93] x[94] x[95] x[96] x[97]
 x[98] x[99] x[100] x[101] x[102] x[103] x[104] x[105] x[106] x[107] x[108]
 x[109] u[0] u[1] u[2] u[3] u[4] u[5] u[6] u[7] u[8] u[9] u[10] u[11] u[12]
 u[13] u[14] u[15] u[16] u[17] u[18] u[19] u[20] u[21] u[22] u[23] u[24]
 u[25] u[26] u[27] u[28] u[29] u[30] u[31] u[32] u[33] u[34] u[35] u[36]
 u[37] u[38] u[39] u[40] u[41] u[42] u[43] u[44] u[45] u[46] u[47] u[48]
 u[49] u[50] u[51] u[52] u[53] u[54] u[55] u[56] u[57] u[58] u[59] u[60]
 u[61] u[62] u[63] u[64] u[65] u[66] u[67] u[68] u[69] u[70] u[71] u[72]
 u[73] u[74] u[75] u[76] u[77] u[78] u[79] u[80] u[81] u[82] u[83] u[84]
 u[85] u[86] u[87] u[88] u[89] u[90] u[91] u[92] u[93] u[94] u[95] u[96]
 u[97] u[98] u[99] u[100] u[101] u[102] u[103] u[104] u[105] u[106] u[107]
 u[108] u[109] r[0] r[1] r[2] r[3] r[4] r[5] r[6] r[7] r[8] r[9] r[10]
 r[11] r[12] r[13] r[14] r[15] r[16] r[17] r[18] r[19] r[20] r[21] r[22]
 r[23] r[24] r[25] r[26] r[27] r[28] r[29] r[30] r[31] r[32] r[33] r[34]
 r[35] r[36] r[37] r[38] r[39] r[40] r[41] r[42] r[43] r[44] r[45] r[46]
 r[47] r[48] r[49] r[50] r[51] r[52] r[53] r[54] r[55] r[56] r[57] r[58]
 r[59] r[60] r[61] r[62] r[63] r[64] r[65] r[66] r[67] r[68] r[69] r[70]
 r[71] r[72] r[73] r[74] r[75] r[76] r[77] r[78] r[79] r[80] r[81] r[82]
 r[83] r[84] r[85] r[86] r[87] r[88] r[89] r[90] r[91] r[92] r[93] r[94]
 r[95] r[96] r[97] r[98] r[99] r[100] r[101] r[102] r[103] r[104] r[105]
 r[106] r[107] r[108] r[109]
End
