instances/knapsack/discrete/knapsack_110_19.kp
38285
110
525

35 3.5 92
80 8.0 84
34 3.4 82
23 2.3 42
72 7.2 27
13 1.3 83
21 2.1 95
75 7.5 9
89 8.9 16
66 6.6 52
83 8.3 81
99 9.9 9
44 4.4 45
36 3.6 60
64 6.4 1
76 7.6 50
61 6.1 36
64 6.4 40
69 6.9 84
38 3.8 23
77 7.7 23
35 3.5 81
92 9.2 6
18 1.8 66
16 1.6 75
76 7.6 36
50 5.0 74
63 6.3 37
45 4.5 96
27 2.7 30
77 7.7 35
3 0.3 14
7 0.7 2
1 0.1 13
64 6.4 73
1 0.1 15
44 4.4 71
16 1.6 41
96 9.6 60
46 4.6 69
71 7.1 74
17 1.7 55
18 1.8 95
89 8.9 97
79 7.9 12
94 9.4 13
73 7.3 58
85 8.5 94
15 1.5 66
88 8.8 47
38 3.8 65
16 1.6 88
33 3.3 61
32 3.2 31
80 8.0 66
79 7.9 12
5 0.5 12
14 1.4 42
68 6.8 22
70 7.0 41
20 2.0 94
54 5.4 96
59 5.9 91
74 7.4 15
59 5.9 84
8 0.8 15
16 1.6 55
22 2.2 51
56 5.6 14
33 3.3 11
13 1.3 23
89 8.9 61
78 7.8 43
47 4.7 19
7 0.7 96
96 9.6 68
46 4.6 64
51 5.1 11
84 8.4 58
58 5.8 13
81 8.1 89
85 8.5 60
2 0.2 51
93 9.3 68
37 3.7 27
17 1.7 78
55 5.5 64
36 3.6 65
46 4.6 30
99 9.9 44
8 0.8 24
68 6.8 87
48 4.8 67
55 5.5 66
80 8.0 62
17 1.7 32
5 0.5 91
88 8.8 74
80 8.0 2
68 6.8 78
5 0.5 18
40 4.0 43
70 7.0 64
8 0.8 11
5 0.5 9
90 9.0 53
75 7.5 60
78 7.8 2
22 2.2 16
25 2.5 30

88560
522

[0.14527012213335364 2.303432603185859 0.46094496647190014 2.526511951882772 0.991282997772068 0.8027653299029479 4.013758302331001 1.7081184881815628 2.9181362008606286 2.327617260657568 4.655275310843366 1.053950973632982 2.5354671181096604 1.1960881725837638 0.5422234175383326 1.4318902682054784 1.2795252672939796 1.1611392746265456 0.43888769855474363 0.9075619358877219 0.2870703657579235 2.297781575585122 0.8251196902408104 0.14825408850021865 2.5323936989400466 0.31017166623976616 3.691818553908269 2.9060957443632853 4.047282069867203 2.3221886039931756 3.878320884482768 3.8420646305281974 3.5752798968480968 2.2432153354240003 1.9584323548268874 2.222211803800068 0.16613037313795365 2.415712459314014 2.032120406724943 0.01229713419333287 2.306856960788597 0.9812854019463217 2.430057817788419 1.2419103479571683 4.727843343464172 1.651621136885158 2.048679256362603 4.498498541288956 0.1468081099368267 3.9011919703557205 4.434108514205572 3.107877943748278 1.278167115517349 0.7333745424489496 1.1390489943684405 3.793656080381252 0.6145519599066581 1.1451632285030102 4.15898917456107 1.3966528666792217 1.1833504843411133 0.037095276945744 1.1326415506337089 4.265113897543038 4.201235412149005 4.030397611156178 1.3793112600262485 0.19846837833359915 2.0322227117004052 2.177511662805874 2.3829256584849627 1.4201316305517617 3.3490658086584117 2.069106470693634 3.607070390306333 2.0975018196105113 1.4260446431161378 2.2973698104068605 2.530366507331693 1.9181392951939733 4.690812508048409 2.1272737574222744 1.1789902214156835 0.7371427632728955 4.260140533433252 0.4621574195889026 0.3873078273641246 0.2033598285132585 2.6136337153980906 0.7374687826653941 1.02429825806767 1.9055291665556209 3.876166587875903 1.880788062336237 0.6420276847320578 0.5987620784568068 4.199066186128137 3.7167988486580734 3.7730653886230003 3.37453963222214 0.05533186134909767 4.220113514048729 3.6886497546298944 4.29358204150129 0.9789175703110292 3.1704556529669943 4.233873957440635 3.178232753717774 1.4773889819904502 3.7881188196620226]

[23 3 97 6 35 37 28 15 36 17 43 98 31 87 44 100 76 3 36 57 40 83 7 34 64 83 37 71 73 90 81 99 67 60 67 12 51 96 27 98 90 5 89 41 54 74 89 33 2 3 54 51 16 47 36 75 36 70 7 5 36 2 87 62 51 63 100 70 35 17 53 37 65 90 11 76 30 46 60 46 65 41 54 81 37 77 11 63 97 70 100 4 20 67 59 92 24 32 23 35 4 19 17 79 44 69 66 66 30 16]
